c created by edge2cnf
p cnf 500 3100
-1 -2 0
-1 -3 0
-1 -4 0
-1 -5 0
-2 -3 0
-2 -4 0
-2 -5 0
-3 -4 0
-3 -5 0
-4 -5 0
1 2 3 4 5 0
-6 -7 0
-6 -8 0
-6 -9 0
-6 -10 0
-7 -8 0
-7 -9 0
-7 -10 0
-8 -9 0
-8 -10 0
-9 -10 0
6 7 8 9 10 0
-11 -12 0
-11 -13 0
-11 -14 0
-11 -15 0
-12 -13 0
-12 -14 0
-12 -15 0
-13 -14 0
-13 -15 0
-14 -15 0
11 12 13 14 15 0
-16 -17 0
-16 -18 0
-16 -19 0
-16 -20 0
-17 -18 0
-17 -19 0
-17 -20 0
-18 -19 0
-18 -20 0
-19 -20 0
16 17 18 19 20 0
-21 -22 0
-21 -23 0
-21 -24 0
-21 -25 0
-22 -23 0
-22 -24 0
-22 -25 0
-23 -24 0
-23 -25 0
-24 -25 0
21 22 23 24 25 0
-26 -27 0
-26 -28 0
-26 -29 0
-26 -30 0
-27 -28 0
-27 -29 0
-27 -30 0
-28 -29 0
-28 -30 0
-29 -30 0
26 27 28 29 30 0
-31 -32 0
-31 -33 0
-31 -34 0
-31 -35 0
-32 -33 0
-32 -34 0
-32 -35 0
-33 -34 0
-33 -35 0
-34 -35 0
31 32 33 34 35 0
-36 -37 0
-36 -38 0
-36 -39 0
-36 -40 0
-37 -38 0
-37 -39 0
-37 -40 0
-38 -39 0
-38 -40 0
-39 -40 0
36 37 38 39 40 0
-41 -42 0
-41 -43 0
-41 -44 0
-41 -45 0
-42 -43 0
-42 -44 0
-42 -45 0
-43 -44 0
-43 -45 0
-44 -45 0
41 42 43 44 45 0
-46 -47 0
-46 -48 0
-46 -49 0
-46 -50 0
-47 -48 0
-47 -49 0
-47 -50 0
-48 -49 0
-48 -50 0
-49 -50 0
46 47 48 49 50 0
-51 -52 0
-51 -53 0
-51 -54 0
-51 -55 0
-52 -53 0
-52 -54 0
-52 -55 0
-53 -54 0
-53 -55 0
-54 -55 0
51 52 53 54 55 0
-56 -57 0
-56 -58 0
-56 -59 0
-56 -60 0
-57 -58 0
-57 -59 0
-57 -60 0
-58 -59 0
-58 -60 0
-59 -60 0
56 57 58 59 60 0
-61 -62 0
-61 -63 0
-61 -64 0
-61 -65 0
-62 -63 0
-62 -64 0
-62 -65 0
-63 -64 0
-63 -65 0
-64 -65 0
61 62 63 64 65 0
-66 -67 0
-66 -68 0
-66 -69 0
-66 -70 0
-67 -68 0
-67 -69 0
-67 -70 0
-68 -69 0
-68 -70 0
-69 -70 0
66 67 68 69 70 0
-71 -72 0
-71 -73 0
-71 -74 0
-71 -75 0
-72 -73 0
-72 -74 0
-72 -75 0
-73 -74 0
-73 -75 0
-74 -75 0
71 72 73 74 75 0
-76 -77 0
-76 -78 0
-76 -79 0
-76 -80 0
-77 -78 0
-77 -79 0
-77 -80 0
-78 -79 0
-78 -80 0
-79 -80 0
76 77 78 79 80 0
-81 -82 0
-81 -83 0
-81 -84 0
-81 -85 0
-82 -83 0
-82 -84 0
-82 -85 0
-83 -84 0
-83 -85 0
-84 -85 0
81 82 83 84 85 0
-86 -87 0
-86 -88 0
-86 -89 0
-86 -90 0
-87 -88 0
-87 -89 0
-87 -90 0
-88 -89 0
-88 -90 0
-89 -90 0
86 87 88 89 90 0
-91 -92 0
-91 -93 0
-91 -94 0
-91 -95 0
-92 -93 0
-92 -94 0
-92 -95 0
-93 -94 0
-93 -95 0
-94 -95 0
91 92 93 94 95 0
-96 -97 0
-96 -98 0
-96 -99 0
-96 -100 0
-97 -98 0
-97 -99 0
-97 -100 0
-98 -99 0
-98 -100 0
-99 -100 0
96 97 98 99 100 0
-101 -102 0
-101 -103 0
-101 -104 0
-101 -105 0
-102 -103 0
-102 -104 0
-102 -105 0
-103 -104 0
-103 -105 0
-104 -105 0
101 102 103 104 105 0
-106 -107 0
-106 -108 0
-106 -109 0
-106 -110 0
-107 -108 0
-107 -109 0
-107 -110 0
-108 -109 0
-108 -110 0
-109 -110 0
106 107 108 109 110 0
-111 -112 0
-111 -113 0
-111 -114 0
-111 -115 0
-112 -113 0
-112 -114 0
-112 -115 0
-113 -114 0
-113 -115 0
-114 -115 0
111 112 113 114 115 0
-116 -117 0
-116 -118 0
-116 -119 0
-116 -120 0
-117 -118 0
-117 -119 0
-117 -120 0
-118 -119 0
-118 -120 0
-119 -120 0
116 117 118 119 120 0
-121 -122 0
-121 -123 0
-121 -124 0
-121 -125 0
-122 -123 0
-122 -124 0
-122 -125 0
-123 -124 0
-123 -125 0
-124 -125 0
121 122 123 124 125 0
-126 -127 0
-126 -128 0
-126 -129 0
-126 -130 0
-127 -128 0
-127 -129 0
-127 -130 0
-128 -129 0
-128 -130 0
-129 -130 0
126 127 128 129 130 0
-131 -132 0
-131 -133 0
-131 -134 0
-131 -135 0
-132 -133 0
-132 -134 0
-132 -135 0
-133 -134 0
-133 -135 0
-134 -135 0
131 132 133 134 135 0
-136 -137 0
-136 -138 0
-136 -139 0
-136 -140 0
-137 -138 0
-137 -139 0
-137 -140 0
-138 -139 0
-138 -140 0
-139 -140 0
136 137 138 139 140 0
-141 -142 0
-141 -143 0
-141 -144 0
-141 -145 0
-142 -143 0
-142 -144 0
-142 -145 0
-143 -144 0
-143 -145 0
-144 -145 0
141 142 143 144 145 0
-146 -147 0
-146 -148 0
-146 -149 0
-146 -150 0
-147 -148 0
-147 -149 0
-147 -150 0
-148 -149 0
-148 -150 0
-149 -150 0
146 147 148 149 150 0
-151 -152 0
-151 -153 0
-151 -154 0
-151 -155 0
-152 -153 0
-152 -154 0
-152 -155 0
-153 -154 0
-153 -155 0
-154 -155 0
151 152 153 154 155 0
-156 -157 0
-156 -158 0
-156 -159 0
-156 -160 0
-157 -158 0
-157 -159 0
-157 -160 0
-158 -159 0
-158 -160 0
-159 -160 0
156 157 158 159 160 0
-161 -162 0
-161 -163 0
-161 -164 0
-161 -165 0
-162 -163 0
-162 -164 0
-162 -165 0
-163 -164 0
-163 -165 0
-164 -165 0
161 162 163 164 165 0
-166 -167 0
-166 -168 0
-166 -169 0
-166 -170 0
-167 -168 0
-167 -169 0
-167 -170 0
-168 -169 0
-168 -170 0
-169 -170 0
166 167 168 169 170 0
-171 -172 0
-171 -173 0
-171 -174 0
-171 -175 0
-172 -173 0
-172 -174 0
-172 -175 0
-173 -174 0
-173 -175 0
-174 -175 0
171 172 173 174 175 0
-176 -177 0
-176 -178 0
-176 -179 0
-176 -180 0
-177 -178 0
-177 -179 0
-177 -180 0
-178 -179 0
-178 -180 0
-179 -180 0
176 177 178 179 180 0
-181 -182 0
-181 -183 0
-181 -184 0
-181 -185 0
-182 -183 0
-182 -184 0
-182 -185 0
-183 -184 0
-183 -185 0
-184 -185 0
181 182 183 184 185 0
-186 -187 0
-186 -188 0
-186 -189 0
-186 -190 0
-187 -188 0
-187 -189 0
-187 -190 0
-188 -189 0
-188 -190 0
-189 -190 0
186 187 188 189 190 0
-191 -192 0
-191 -193 0
-191 -194 0
-191 -195 0
-192 -193 0
-192 -194 0
-192 -195 0
-193 -194 0
-193 -195 0
-194 -195 0
191 192 193 194 195 0
-196 -197 0
-196 -198 0
-196 -199 0
-196 -200 0
-197 -198 0
-197 -199 0
-197 -200 0
-198 -199 0
-198 -200 0
-199 -200 0
196 197 198 199 200 0
-201 -202 0
-201 -203 0
-201 -204 0
-201 -205 0
-202 -203 0
-202 -204 0
-202 -205 0
-203 -204 0
-203 -205 0
-204 -205 0
201 202 203 204 205 0
-206 -207 0
-206 -208 0
-206 -209 0
-206 -210 0
-207 -208 0
-207 -209 0
-207 -210 0
-208 -209 0
-208 -210 0
-209 -210 0
206 207 208 209 210 0
-211 -212 0
-211 -213 0
-211 -214 0
-211 -215 0
-212 -213 0
-212 -214 0
-212 -215 0
-213 -214 0
-213 -215 0
-214 -215 0
211 212 213 214 215 0
-216 -217 0
-216 -218 0
-216 -219 0
-216 -220 0
-217 -218 0
-217 -219 0
-217 -220 0
-218 -219 0
-218 -220 0
-219 -220 0
216 217 218 219 220 0
-221 -222 0
-221 -223 0
-221 -224 0
-221 -225 0
-222 -223 0
-222 -224 0
-222 -225 0
-223 -224 0
-223 -225 0
-224 -225 0
221 222 223 224 225 0
-226 -227 0
-226 -228 0
-226 -229 0
-226 -230 0
-227 -228 0
-227 -229 0
-227 -230 0
-228 -229 0
-228 -230 0
-229 -230 0
226 227 228 229 230 0
-231 -232 0
-231 -233 0
-231 -234 0
-231 -235 0
-232 -233 0
-232 -234 0
-232 -235 0
-233 -234 0
-233 -235 0
-234 -235 0
231 232 233 234 235 0
-236 -237 0
-236 -238 0
-236 -239 0
-236 -240 0
-237 -238 0
-237 -239 0
-237 -240 0
-238 -239 0
-238 -240 0
-239 -240 0
236 237 238 239 240 0
-241 -242 0
-241 -243 0
-241 -244 0
-241 -245 0
-242 -243 0
-242 -244 0
-242 -245 0
-243 -244 0
-243 -245 0
-244 -245 0
241 242 243 244 245 0
-246 -247 0
-246 -248 0
-246 -249 0
-246 -250 0
-247 -248 0
-247 -249 0
-247 -250 0
-248 -249 0
-248 -250 0
-249 -250 0
246 247 248 249 250 0
-251 -252 0
-251 -253 0
-251 -254 0
-251 -255 0
-252 -253 0
-252 -254 0
-252 -255 0
-253 -254 0
-253 -255 0
-254 -255 0
251 252 253 254 255 0
-256 -257 0
-256 -258 0
-256 -259 0
-256 -260 0
-257 -258 0
-257 -259 0
-257 -260 0
-258 -259 0
-258 -260 0
-259 -260 0
256 257 258 259 260 0
-261 -262 0
-261 -263 0
-261 -264 0
-261 -265 0
-262 -263 0
-262 -264 0
-262 -265 0
-263 -264 0
-263 -265 0
-264 -265 0
261 262 263 264 265 0
-266 -267 0
-266 -268 0
-266 -269 0
-266 -270 0
-267 -268 0
-267 -269 0
-267 -270 0
-268 -269 0
-268 -270 0
-269 -270 0
266 267 268 269 270 0
-271 -272 0
-271 -273 0
-271 -274 0
-271 -275 0
-272 -273 0
-272 -274 0
-272 -275 0
-273 -274 0
-273 -275 0
-274 -275 0
271 272 273 274 275 0
-276 -277 0
-276 -278 0
-276 -279 0
-276 -280 0
-277 -278 0
-277 -279 0
-277 -280 0
-278 -279 0
-278 -280 0
-279 -280 0
276 277 278 279 280 0
-281 -282 0
-281 -283 0
-281 -284 0
-281 -285 0
-282 -283 0
-282 -284 0
-282 -285 0
-283 -284 0
-283 -285 0
-284 -285 0
281 282 283 284 285 0
-286 -287 0
-286 -288 0
-286 -289 0
-286 -290 0
-287 -288 0
-287 -289 0
-287 -290 0
-288 -289 0
-288 -290 0
-289 -290 0
286 287 288 289 290 0
-291 -292 0
-291 -293 0
-291 -294 0
-291 -295 0
-292 -293 0
-292 -294 0
-292 -295 0
-293 -294 0
-293 -295 0
-294 -295 0
291 292 293 294 295 0
-296 -297 0
-296 -298 0
-296 -299 0
-296 -300 0
-297 -298 0
-297 -299 0
-297 -300 0
-298 -299 0
-298 -300 0
-299 -300 0
296 297 298 299 300 0
-301 -302 0
-301 -303 0
-301 -304 0
-301 -305 0
-302 -303 0
-302 -304 0
-302 -305 0
-303 -304 0
-303 -305 0
-304 -305 0
301 302 303 304 305 0
-306 -307 0
-306 -308 0
-306 -309 0
-306 -310 0
-307 -308 0
-307 -309 0
-307 -310 0
-308 -309 0
-308 -310 0
-309 -310 0
306 307 308 309 310 0
-311 -312 0
-311 -313 0
-311 -314 0
-311 -315 0
-312 -313 0
-312 -314 0
-312 -315 0
-313 -314 0
-313 -315 0
-314 -315 0
311 312 313 314 315 0
-316 -317 0
-316 -318 0
-316 -319 0
-316 -320 0
-317 -318 0
-317 -319 0
-317 -320 0
-318 -319 0
-318 -320 0
-319 -320 0
316 317 318 319 320 0
-321 -322 0
-321 -323 0
-321 -324 0
-321 -325 0
-322 -323 0
-322 -324 0
-322 -325 0
-323 -324 0
-323 -325 0
-324 -325 0
321 322 323 324 325 0
-326 -327 0
-326 -328 0
-326 -329 0
-326 -330 0
-327 -328 0
-327 -329 0
-327 -330 0
-328 -329 0
-328 -330 0
-329 -330 0
326 327 328 329 330 0
-331 -332 0
-331 -333 0
-331 -334 0
-331 -335 0
-332 -333 0
-332 -334 0
-332 -335 0
-333 -334 0
-333 -335 0
-334 -335 0
331 332 333 334 335 0
-336 -337 0
-336 -338 0
-336 -339 0
-336 -340 0
-337 -338 0
-337 -339 0
-337 -340 0
-338 -339 0
-338 -340 0
-339 -340 0
336 337 338 339 340 0
-341 -342 0
-341 -343 0
-341 -344 0
-341 -345 0
-342 -343 0
-342 -344 0
-342 -345 0
-343 -344 0
-343 -345 0
-344 -345 0
341 342 343 344 345 0
-346 -347 0
-346 -348 0
-346 -349 0
-346 -350 0
-347 -348 0
-347 -349 0
-347 -350 0
-348 -349 0
-348 -350 0
-349 -350 0
346 347 348 349 350 0
-351 -352 0
-351 -353 0
-351 -354 0
-351 -355 0
-352 -353 0
-352 -354 0
-352 -355 0
-353 -354 0
-353 -355 0
-354 -355 0
351 352 353 354 355 0
-356 -357 0
-356 -358 0
-356 -359 0
-356 -360 0
-357 -358 0
-357 -359 0
-357 -360 0
-358 -359 0
-358 -360 0
-359 -360 0
356 357 358 359 360 0
-361 -362 0
-361 -363 0
-361 -364 0
-361 -365 0
-362 -363 0
-362 -364 0
-362 -365 0
-363 -364 0
-363 -365 0
-364 -365 0
361 362 363 364 365 0
-366 -367 0
-366 -368 0
-366 -369 0
-366 -370 0
-367 -368 0
-367 -369 0
-367 -370 0
-368 -369 0
-368 -370 0
-369 -370 0
366 367 368 369 370 0
-371 -372 0
-371 -373 0
-371 -374 0
-371 -375 0
-372 -373 0
-372 -374 0
-372 -375 0
-373 -374 0
-373 -375 0
-374 -375 0
371 372 373 374 375 0
-376 -377 0
-376 -378 0
-376 -379 0
-376 -380 0
-377 -378 0
-377 -379 0
-377 -380 0
-378 -379 0
-378 -380 0
-379 -380 0
376 377 378 379 380 0
-381 -382 0
-381 -383 0
-381 -384 0
-381 -385 0
-382 -383 0
-382 -384 0
-382 -385 0
-383 -384 0
-383 -385 0
-384 -385 0
381 382 383 384 385 0
-386 -387 0
-386 -388 0
-386 -389 0
-386 -390 0
-387 -388 0
-387 -389 0
-387 -390 0
-388 -389 0
-388 -390 0
-389 -390 0
386 387 388 389 390 0
-391 -392 0
-391 -393 0
-391 -394 0
-391 -395 0
-392 -393 0
-392 -394 0
-392 -395 0
-393 -394 0
-393 -395 0
-394 -395 0
391 392 393 394 395 0
-396 -397 0
-396 -398 0
-396 -399 0
-396 -400 0
-397 -398 0
-397 -399 0
-397 -400 0
-398 -399 0
-398 -400 0
-399 -400 0
396 397 398 399 400 0
-401 -402 0
-401 -403 0
-401 -404 0
-401 -405 0
-402 -403 0
-402 -404 0
-402 -405 0
-403 -404 0
-403 -405 0
-404 -405 0
401 402 403 404 405 0
-406 -407 0
-406 -408 0
-406 -409 0
-406 -410 0
-407 -408 0
-407 -409 0
-407 -410 0
-408 -409 0
-408 -410 0
-409 -410 0
406 407 408 409 410 0
-411 -412 0
-411 -413 0
-411 -414 0
-411 -415 0
-412 -413 0
-412 -414 0
-412 -415 0
-413 -414 0
-413 -415 0
-414 -415 0
411 412 413 414 415 0
-416 -417 0
-416 -418 0
-416 -419 0
-416 -420 0
-417 -418 0
-417 -419 0
-417 -420 0
-418 -419 0
-418 -420 0
-419 -420 0
416 417 418 419 420 0
-421 -422 0
-421 -423 0
-421 -424 0
-421 -425 0
-422 -423 0
-422 -424 0
-422 -425 0
-423 -424 0
-423 -425 0
-424 -425 0
421 422 423 424 425 0
-426 -427 0
-426 -428 0
-426 -429 0
-426 -430 0
-427 -428 0
-427 -429 0
-427 -430 0
-428 -429 0
-428 -430 0
-429 -430 0
426 427 428 429 430 0
-431 -432 0
-431 -433 0
-431 -434 0
-431 -435 0
-432 -433 0
-432 -434 0
-432 -435 0
-433 -434 0
-433 -435 0
-434 -435 0
431 432 433 434 435 0
-436 -437 0
-436 -438 0
-436 -439 0
-436 -440 0
-437 -438 0
-437 -439 0
-437 -440 0
-438 -439 0
-438 -440 0
-439 -440 0
436 437 438 439 440 0
-441 -442 0
-441 -443 0
-441 -444 0
-441 -445 0
-442 -443 0
-442 -444 0
-442 -445 0
-443 -444 0
-443 -445 0
-444 -445 0
441 442 443 444 445 0
-446 -447 0
-446 -448 0
-446 -449 0
-446 -450 0
-447 -448 0
-447 -449 0
-447 -450 0
-448 -449 0
-448 -450 0
-449 -450 0
446 447 448 449 450 0
-451 -452 0
-451 -453 0
-451 -454 0
-451 -455 0
-452 -453 0
-452 -454 0
-452 -455 0
-453 -454 0
-453 -455 0
-454 -455 0
451 452 453 454 455 0
-456 -457 0
-456 -458 0
-456 -459 0
-456 -460 0
-457 -458 0
-457 -459 0
-457 -460 0
-458 -459 0
-458 -460 0
-459 -460 0
456 457 458 459 460 0
-461 -462 0
-461 -463 0
-461 -464 0
-461 -465 0
-462 -463 0
-462 -464 0
-462 -465 0
-463 -464 0
-463 -465 0
-464 -465 0
461 462 463 464 465 0
-466 -467 0
-466 -468 0
-466 -469 0
-466 -470 0
-467 -468 0
-467 -469 0
-467 -470 0
-468 -469 0
-468 -470 0
-469 -470 0
466 467 468 469 470 0
-471 -472 0
-471 -473 0
-471 -474 0
-471 -475 0
-472 -473 0
-472 -474 0
-472 -475 0
-473 -474 0
-473 -475 0
-474 -475 0
471 472 473 474 475 0
-476 -477 0
-476 -478 0
-476 -479 0
-476 -480 0
-477 -478 0
-477 -479 0
-477 -480 0
-478 -479 0
-478 -480 0
-479 -480 0
476 477 478 479 480 0
-481 -482 0
-481 -483 0
-481 -484 0
-481 -485 0
-482 -483 0
-482 -484 0
-482 -485 0
-483 -484 0
-483 -485 0
-484 -485 0
481 482 483 484 485 0
-486 -487 0
-486 -488 0
-486 -489 0
-486 -490 0
-487 -488 0
-487 -489 0
-487 -490 0
-488 -489 0
-488 -490 0
-489 -490 0
486 487 488 489 490 0
-491 -492 0
-491 -493 0
-491 -494 0
-491 -495 0
-492 -493 0
-492 -494 0
-492 -495 0
-493 -494 0
-493 -495 0
-494 -495 0
491 492 493 494 495 0
-496 -497 0
-496 -498 0
-496 -499 0
-496 -500 0
-497 -498 0
-497 -499 0
-497 -500 0
-498 -499 0
-498 -500 0
-499 -500 0
496 497 498 499 500 0
-16 -26 0
-17 -27 0
-18 -28 0
-19 -29 0
-20 -30 0
-36 -46 0
-37 -47 0
-38 -48 0
-39 -49 0
-40 -50 0
-71 -81 0
-72 -82 0
-73 -83 0
-74 -84 0
-75 -85 0
-86 -91 0
-87 -92 0
-88 -93 0
-89 -94 0
-90 -95 0
-96 -101 0
-97 -102 0
-98 -103 0
-99 -104 0
-100 -105 0
-96 -116 0
-97 -117 0
-98 -118 0
-99 -119 0
-100 -120 0
-106 -116 0
-107 -117 0
-108 -118 0
-109 -119 0
-110 -120 0
-106 -121 0
-107 -122 0
-108 -123 0
-109 -124 0
-110 -125 0
-106 -126 0
-107 -127 0
-108 -128 0
-109 -129 0
-110 -130 0
-116 -131 0
-117 -132 0
-118 -133 0
-119 -134 0
-120 -135 0
-171 -191 0
-172 -192 0
-173 -193 0
-174 -194 0
-175 -195 0
-176 -196 0
-177 -197 0
-178 -198 0
-179 -199 0
-180 -200 0
-196 -211 0
-197 -212 0
-198 -213 0
-199 -214 0
-200 -215 0
-206 -216 0
-207 -217 0
-208 -218 0
-209 -219 0
-210 -220 0
-206 -221 0
-207 -222 0
-208 -223 0
-209 -224 0
-210 -225 0
-206 -226 0
-207 -227 0
-208 -228 0
-209 -229 0
-210 -230 0
-216 -221 0
-217 -222 0
-218 -223 0
-219 -224 0
-220 -225 0
-231 -241 0
-232 -242 0
-233 -243 0
-234 -244 0
-235 -245 0
-231 -246 0
-232 -247 0
-233 -248 0
-234 -249 0
-235 -250 0
-246 -251 0
-247 -252 0
-248 -253 0
-249 -254 0
-250 -255 0
-271 -276 0
-272 -277 0
-273 -278 0
-274 -279 0
-275 -280 0
-281 -291 0
-282 -292 0
-283 -293 0
-284 -294 0
-285 -295 0
-296 -306 0
-297 -307 0
-298 -308 0
-299 -309 0
-300 -310 0
-301 -306 0
-302 -307 0
-303 -308 0
-304 -309 0
-305 -310 0
-316 -331 0
-317 -332 0
-318 -333 0
-319 -334 0
-320 -335 0
-331 -351 0
-332 -352 0
-333 -353 0
-334 -354 0
-335 -355 0
-336 -346 0
-337 -347 0
-338 -348 0
-339 -349 0
-340 -350 0
-381 -386 0
-382 -387 0
-383 -388 0
-384 -389 0
-385 -390 0
-386 -406 0
-387 -407 0
-388 -408 0
-389 -409 0
-390 -410 0
-396 -401 0
-397 -402 0
-398 -403 0
-399 -404 0
-400 -405 0
-421 -426 0
-422 -427 0
-423 -428 0
-424 -429 0
-425 -430 0
-441 -461 0
-442 -462 0
-443 -463 0
-444 -464 0
-445 -465 0
-446 -466 0
-447 -467 0
-448 -468 0
-449 -469 0
-450 -470 0
-461 -476 0
-462 -477 0
-463 -478 0
-464 -479 0
-465 -480 0
-1 -481 0
-2 -482 0
-3 -483 0
-4 -484 0
-5 -485 0
-16 -496 0
-17 -497 0
-18 -498 0
-19 -499 0
-20 -500 0
-11 -496 0
-12 -497 0
-13 -498 0
-14 -499 0
-15 -500 0
-6 -491 0
-7 -492 0
-8 -493 0
-9 -494 0
-10 -495 0
-1 -491 0
-2 -492 0
-3 -493 0
-4 -494 0
-5 -495 0
-6 -486 0
-7 -487 0
-8 -488 0
-9 -489 0
-10 -490 0
-1 -486 0
-2 -487 0
-3 -488 0
-4 -489 0
-5 -490 0
-486 -496 0
-487 -497 0
-488 -498 0
-489 -499 0
-490 -500 0
-486 -491 0
-487 -492 0
-488 -493 0
-489 -494 0
-490 -495 0
-481 -496 0
-482 -497 0
-483 -498 0
-484 -499 0
-485 -500 0
-481 -491 0
-482 -492 0
-483 -493 0
-484 -494 0
-485 -495 0
-481 -486 0
-482 -487 0
-483 -488 0
-484 -489 0
-485 -490 0
-476 -491 0
-477 -492 0
-478 -493 0
-479 -494 0
-480 -495 0
-476 -486 0
-477 -487 0
-478 -488 0
-479 -489 0
-480 -490 0
-471 -486 0
-472 -487 0
-473 -488 0
-474 -489 0
-475 -490 0
-471 -476 0
-472 -477 0
-473 -478 0
-474 -479 0
-475 -480 0
-466 -476 0
-467 -477 0
-468 -478 0
-469 -479 0
-470 -480 0
-466 -471 0
-467 -472 0
-468 -473 0
-469 -474 0
-470 -475 0
-461 -471 0
-462 -472 0
-463 -473 0
-464 -474 0
-465 -475 0
-461 -466 0
-462 -467 0
-463 -468 0
-464 -469 0
-465 -470 0
-456 -476 0
-457 -477 0
-458 -478 0
-459 -479 0
-460 -480 0
-456 -466 0
-457 -467 0
-458 -468 0
-459 -469 0
-460 -470 0
-451 -471 0
-452 -472 0
-453 -473 0
-454 -474 0
-455 -475 0
-446 -461 0
-447 -462 0
-448 -463 0
-449 -464 0
-450 -465 0
-446 -456 0
-447 -457 0
-448 -458 0
-449 -459 0
-450 -460 0
-446 -451 0
-447 -452 0
-448 -453 0
-449 -454 0
-450 -455 0
-441 -456 0
-442 -457 0
-443 -458 0
-444 -459 0
-445 -460 0
-441 -451 0
-442 -452 0
-443 -453 0
-444 -454 0
-445 -455 0
-436 -456 0
-437 -457 0
-438 -458 0
-439 -459 0
-440 -460 0
-436 -451 0
-437 -452 0
-438 -453 0
-439 -454 0
-440 -455 0
-436 -441 0
-437 -442 0
-438 -443 0
-439 -444 0
-440 -445 0
-431 -446 0
-432 -447 0
-433 -448 0
-434 -449 0
-435 -450 0
-426 -431 0
-427 -432 0
-428 -433 0
-429 -434 0
-430 -435 0
-421 -441 0
-422 -442 0
-423 -443 0
-424 -444 0
-425 -445 0
-421 -436 0
-422 -437 0
-423 -438 0
-424 -439 0
-425 -440 0
-416 -436 0
-417 -437 0
-418 -438 0
-419 -439 0
-420 -440 0
-416 -431 0
-417 -432 0
-418 -433 0
-419 -434 0
-420 -435 0
-416 -421 0
-417 -422 0
-418 -423 0
-419 -424 0
-420 -425 0
-411 -431 0
-412 -432 0
-413 -433 0
-414 -434 0
-415 -435 0
-401 -421 0
-402 -422 0
-403 -423 0
-404 -424 0
-405 -425 0
-396 -416 0
-397 -417 0
-398 -418 0
-399 -419 0
-400 -420 0
-391 -411 0
-392 -412 0
-393 -413 0
-394 -414 0
-395 -415 0
-391 -401 0
-392 -402 0
-393 -403 0
-394 -404 0
-395 -405 0
-386 -401 0
-387 -402 0
-388 -403 0
-389 -404 0
-390 -405 0
-386 -396 0
-387 -397 0
-388 -398 0
-389 -399 0
-390 -400 0
-381 -401 0
-382 -402 0
-383 -403 0
-384 -404 0
-385 -405 0
-376 -391 0
-377 -392 0
-378 -393 0
-379 -394 0
-380 -395 0
-371 -391 0
-372 -392 0
-373 -393 0
-374 -394 0
-375 -395 0
-366 -381 0
-367 -382 0
-368 -383 0
-369 -384 0
-370 -385 0
-361 -376 0
-362 -377 0
-363 -378 0
-364 -379 0
-365 -380 0
-361 -371 0
-362 -372 0
-363 -373 0
-364 -374 0
-365 -375 0
-356 -376 0
-357 -377 0
-358 -378 0
-359 -379 0
-360 -380 0
-356 -361 0
-357 -362 0
-358 -363 0
-359 -364 0
-360 -365 0
-346 -361 0
-347 -362 0
-348 -363 0
-349 -364 0
-350 -365 0
-346 -356 0
-347 -357 0
-348 -358 0
-349 -359 0
-350 -360 0
-341 -356 0
-342 -357 0
-343 -358 0
-344 -359 0
-345 -360 0
-341 -351 0
-342 -352 0
-343 -353 0
-344 -354 0
-345 -355 0
-336 -356 0
-337 -357 0
-338 -358 0
-339 -359 0
-340 -360 0
-326 -346 0
-327 -347 0
-328 -348 0
-329 -349 0
-330 -350 0
-326 -341 0
-327 -342 0
-328 -343 0
-329 -344 0
-330 -345 0
-326 -336 0
-327 -337 0
-328 -338 0
-329 -339 0
-330 -340 0
-326 -331 0
-327 -332 0
-328 -333 0
-329 -334 0
-330 -335 0
-316 -336 0
-317 -337 0
-318 -338 0
-319 -339 0
-320 -340 0
-316 -321 0
-317 -322 0
-318 -323 0
-319 -324 0
-320 -325 0
-311 -331 0
-312 -332 0
-313 -333 0
-314 -334 0
-315 -335 0
-311 -326 0
-312 -327 0
-313 -328 0
-314 -329 0
-315 -330 0
-311 -321 0
-312 -322 0
-313 -323 0
-314 -324 0
-315 -325 0
-306 -326 0
-307 -327 0
-308 -328 0
-309 -329 0
-310 -330 0
-306 -316 0
-307 -317 0
-308 -318 0
-309 -319 0
-310 -320 0
-306 -311 0
-307 -312 0
-308 -313 0
-309 -314 0
-310 -315 0
-301 -321 0
-302 -322 0
-303 -323 0
-304 -324 0
-305 -325 0
-296 -316 0
-297 -317 0
-298 -318 0
-299 -319 0
-300 -320 0
-291 -311 0
-292 -312 0
-293 -313 0
-294 -314 0
-295 -315 0
-291 -306 0
-292 -307 0
-293 -308 0
-294 -309 0
-295 -310 0
-286 -306 0
-287 -307 0
-288 -308 0
-289 -309 0
-290 -310 0
-286 -301 0
-287 -302 0
-288 -303 0
-289 -304 0
-290 -305 0
-281 -301 0
-282 -302 0
-283 -303 0
-284 -304 0
-285 -305 0
-281 -296 0
-282 -297 0
-283 -298 0
-284 -299 0
-285 -300 0
-281 -286 0
-282 -287 0
-283 -288 0
-284 -289 0
-285 -290 0
-276 -291 0
-277 -292 0
-278 -293 0
-279 -294 0
-280 -295 0
-271 -291 0
-272 -292 0
-273 -293 0
-274 -294 0
-275 -295 0
-271 -286 0
-272 -287 0
-273 -288 0
-274 -289 0
-275 -290 0
-271 -281 0
-272 -282 0
-273 -283 0
-274 -284 0
-275 -285 0
-266 -281 0
-267 -282 0
-268 -283 0
-269 -284 0
-270 -285 0
-266 -271 0
-267 -272 0
-268 -273 0
-269 -274 0
-270 -275 0
-261 -281 0
-262 -282 0
-263 -283 0
-264 -284 0
-265 -285 0
-261 -271 0
-262 -272 0
-263 -273 0
-264 -274 0
-265 -275 0
-261 -266 0
-262 -267 0
-263 -268 0
-264 -269 0
-265 -270 0
-256 -276 0
-257 -277 0
-258 -278 0
-259 -279 0
-260 -280 0
-256 -271 0
-257 -272 0
-258 -273 0
-259 -274 0
-260 -275 0
-256 -266 0
-257 -267 0
-258 -268 0
-259 -269 0
-260 -270 0
-256 -261 0
-257 -262 0
-258 -263 0
-259 -264 0
-260 -265 0
-251 -266 0
-252 -267 0
-253 -268 0
-254 -269 0
-255 -270 0
-246 -261 0
-247 -262 0
-248 -263 0
-249 -264 0
-250 -265 0
-241 -256 0
-242 -257 0
-243 -258 0
-244 -259 0
-245 -260 0
-241 -251 0
-242 -252 0
-243 -253 0
-244 -254 0
-245 -255 0
-236 -256 0
-237 -257 0
-238 -258 0
-239 -259 0
-240 -260 0
-236 -251 0
-237 -252 0
-238 -253 0
-239 -254 0
-240 -255 0
-236 -241 0
-237 -242 0
-238 -243 0
-239 -244 0
-240 -245 0
-231 -251 0
-232 -252 0
-233 -253 0
-234 -254 0
-235 -255 0
-226 -246 0
-227 -247 0
-228 -248 0
-229 -249 0
-230 -250 0
-226 -241 0
-227 -242 0
-228 -243 0
-229 -244 0
-230 -245 0
-226 -236 0
-227 -237 0
-228 -238 0
-229 -239 0
-230 -240 0
-221 -236 0
-222 -237 0
-223 -238 0
-224 -239 0
-225 -240 0
-216 -236 0
-217 -237 0
-218 -238 0
-219 -239 0
-220 -240 0
-216 -226 0
-217 -227 0
-218 -228 0
-219 -229 0
-220 -230 0
-211 -226 0
-212 -227 0
-213 -228 0
-214 -229 0
-215 -230 0
-211 -221 0
-212 -222 0
-213 -223 0
-214 -224 0
-215 -225 0
-201 -216 0
-202 -217 0
-203 -218 0
-204 -219 0
-205 -220 0
-201 -211 0
-202 -212 0
-203 -213 0
-204 -214 0
-205 -215 0
-201 -206 0
-202 -207 0
-203 -208 0
-204 -209 0
-205 -210 0
-196 -206 0
-197 -207 0
-198 -208 0
-199 -209 0
-200 -210 0
-191 -211 0
-192 -212 0
-193 -213 0
-194 -214 0
-195 -215 0
-191 -206 0
-192 -207 0
-193 -208 0
-194 -209 0
-195 -210 0
-191 -201 0
-192 -202 0
-193 -203 0
-194 -204 0
-195 -205 0
-191 -196 0
-192 -197 0
-193 -198 0
-194 -199 0
-195 -200 0
-186 -201 0
-187 -202 0
-188 -203 0
-189 -204 0
-190 -205 0
-186 -196 0
-187 -197 0
-188 -198 0
-189 -199 0
-190 -200 0
-181 -201 0
-182 -202 0
-183 -203 0
-184 -204 0
-185 -205 0
-181 -191 0
-182 -192 0
-183 -193 0
-184 -194 0
-185 -195 0
-181 -186 0
-182 -187 0
-183 -188 0
-184 -189 0
-185 -190 0
-176 -191 0
-177 -192 0
-178 -193 0
-179 -194 0
-180 -195 0
-176 -186 0
-177 -187 0
-178 -188 0
-179 -189 0
-180 -190 0
-171 -186 0
-172 -187 0
-173 -188 0
-174 -189 0
-175 -190 0
-171 -181 0
-172 -182 0
-173 -183 0
-174 -184 0
-175 -185 0
-166 -186 0
-167 -187 0
-168 -188 0
-169 -189 0
-170 -190 0
-166 -181 0
-167 -182 0
-168 -183 0
-169 -184 0
-170 -185 0
-166 -171 0
-167 -172 0
-168 -173 0
-169 -174 0
-170 -175 0
-161 -181 0
-162 -182 0
-163 -183 0
-164 -184 0
-165 -185 0
-161 -176 0
-162 -177 0
-163 -178 0
-164 -179 0
-165 -180 0
-161 -166 0
-162 -167 0
-163 -168 0
-164 -169 0
-165 -170 0
-156 -176 0
-157 -177 0
-158 -178 0
-159 -179 0
-160 -180 0
-156 -161 0
-157 -162 0
-158 -163 0
-159 -164 0
-160 -165 0
-151 -161 0
-152 -162 0
-153 -163 0
-154 -164 0
-155 -165 0
-151 -156 0
-152 -157 0
-153 -158 0
-154 -159 0
-155 -160 0
-146 -166 0
-147 -167 0
-148 -168 0
-149 -169 0
-150 -170 0
-146 -161 0
-147 -162 0
-148 -163 0
-149 -164 0
-150 -165 0
-146 -151 0
-147 -152 0
-148 -153 0
-149 -154 0
-150 -155 0
-141 -151 0
-142 -152 0
-143 -153 0
-144 -154 0
-145 -155 0
-136 -151 0
-137 -152 0
-138 -153 0
-139 -154 0
-140 -155 0
-131 -151 0
-132 -152 0
-133 -153 0
-134 -154 0
-135 -155 0
-131 -136 0
-132 -137 0
-133 -138 0
-134 -139 0
-135 -140 0
-126 -146 0
-127 -147 0
-128 -148 0
-129 -149 0
-130 -150 0
-126 -141 0
-127 -142 0
-128 -143 0
-129 -144 0
-130 -145 0
-126 -131 0
-127 -132 0
-128 -133 0
-129 -134 0
-130 -135 0
-121 -141 0
-122 -142 0
-123 -143 0
-124 -144 0
-125 -145 0
-121 -136 0
-122 -137 0
-123 -138 0
-124 -139 0
-125 -140 0
-116 -136 0
-117 -137 0
-118 -138 0
-119 -139 0
-120 -140 0
-111 -131 0
-112 -132 0
-113 -133 0
-114 -134 0
-115 -135 0
-111 -126 0
-112 -127 0
-113 -128 0
-114 -129 0
-115 -130 0
-106 -111 0
-107 -112 0
-108 -113 0
-109 -114 0
-110 -115 0
-101 -121 0
-102 -122 0
-103 -123 0
-104 -124 0
-105 -125 0
-96 -111 0
-97 -112 0
-98 -113 0
-99 -114 0
-100 -115 0
-91 -111 0
-92 -112 0
-93 -113 0
-94 -114 0
-95 -115 0
-91 -96 0
-92 -97 0
-93 -98 0
-94 -99 0
-95 -100 0
-86 -106 0
-87 -107 0
-88 -108 0
-89 -109 0
-90 -110 0
-86 -101 0
-87 -102 0
-88 -103 0
-89 -104 0
-90 -105 0
-76 -86 0
-77 -87 0
-78 -88 0
-79 -89 0
-80 -90 0
-76 -81 0
-77 -82 0
-78 -83 0
-79 -84 0
-80 -85 0
-71 -91 0
-72 -92 0
-73 -93 0
-74 -94 0
-75 -95 0
-71 -86 0
-72 -87 0
-73 -88 0
-74 -89 0
-75 -90 0
-66 -81 0
-67 -82 0
-68 -83 0
-69 -84 0
-70 -85 0
-66 -76 0
-67 -77 0
-68 -78 0
-69 -79 0
-70 -80 0
-66 -71 0
-67 -72 0
-68 -73 0
-69 -74 0
-70 -75 0
-61 -81 0
-62 -82 0
-63 -83 0
-64 -84 0
-65 -85 0
-61 -71 0
-62 -72 0
-63 -73 0
-64 -74 0
-65 -75 0
-46 -66 0
-47 -67 0
-48 -68 0
-49 -69 0
-50 -70 0
-46 -61 0
-47 -62 0
-48 -63 0
-49 -64 0
-50 -65 0
-41 -61 0
-42 -62 0
-43 -63 0
-44 -64 0
-45 -65 0
-41 -51 0
-42 -52 0
-43 -53 0
-44 -54 0
-45 -55 0
-36 -56 0
-37 -57 0
-38 -58 0
-39 -59 0
-40 -60 0
-36 -41 0
-37 -42 0
-38 -43 0
-39 -44 0
-40 -45 0
-26 -46 0
-27 -47 0
-28 -48 0
-29 -49 0
-30 -50 0
-26 -41 0
-27 -42 0
-28 -43 0
-29 -44 0
-30 -45 0
-21 -41 0
-22 -42 0
-23 -43 0
-24 -44 0
-25 -45 0
-16 -36 0
-17 -37 0
-18 -38 0
-19 -39 0
-20 -40 0
-16 -31 0
-17 -32 0
-18 -33 0
-19 -34 0
-20 -35 0
-11 -26 0
-12 -27 0
-13 -28 0
-14 -29 0
-15 -30 0
-11 -21 0
-12 -22 0
-13 -23 0
-14 -24 0
-15 -25 0
-11 -16 0
-12 -17 0
-13 -18 0
-14 -19 0
-15 -20 0
-6 -21 0
-7 -22 0
-8 -23 0
-9 -24 0
-10 -25 0
-1 -16 0
-2 -17 0
-3 -18 0
-4 -19 0
-5 -20 0
-1 -11 0
-2 -12 0
-3 -13 0
-4 -14 0
-5 -15 0
-1 -6 0
-2 -7 0
-3 -8 0
-4 -9 0
-5 -10 0
-26 -221 0
-27 -222 0
-28 -223 0
-29 -224 0
-30 -225 0
-216 -416 0
-217 -417 0
-218 -418 0
-219 -419 0
-220 -420 0
-61 -281 0
-62 -282 0
-63 -283 0
-64 -284 0
-65 -285 0
-116 -291 0
-117 -292 0
-118 -293 0
-119 -294 0
-120 -295 0
-26 -186 0
-27 -187 0
-28 -188 0
-29 -189 0
-30 -190 0
-81 -461 0
-82 -462 0
-83 -463 0
-84 -464 0
-85 -465 0
-176 -436 0
-177 -437 0
-178 -438 0
-179 -439 0
-180 -440 0
-31 -401 0
-32 -402 0
-33 -403 0
-34 -404 0
-35 -405 0
-266 -306 0
-267 -307 0
-268 -308 0
-269 -309 0
-270 -310 0
-41 -486 0
-42 -487 0
-43 -488 0
-44 -489 0
-45 -490 0
-326 -451 0
-327 -452 0
-328 -453 0
-329 -454 0
-330 -455 0
-26 -326 0
-27 -327 0
-28 -328 0
-29 -329 0
-30 -330 0
-56 -131 0
-57 -132 0
-58 -133 0
-59 -134 0
-60 -135 0
-166 -236 0
-167 -237 0
-168 -238 0
-169 -239 0
-170 -240 0
-151 -396 0
-152 -397 0
-153 -398 0
-154 -399 0
-155 -400 0
-271 -426 0
-272 -427 0
-273 -428 0
-274 -429 0
-275 -430 0
-96 -336 0
-97 -337 0
-98 -338 0
-99 -339 0
-100 -340 0
-171 -236 0
-172 -237 0
-173 -238 0
-174 -239 0
-175 -240 0
-161 -451 0
-162 -452 0
-163 -453 0
-164 -454 0
-165 -455 0
-6 -126 0
-7 -127 0
-8 -128 0
-9 -129 0
-10 -130 0
-91 -396 0
-92 -397 0
-93 -398 0
-94 -399 0
-95 -400 0
-346 -431 0
-347 -432 0
-348 -433 0
-349 -434 0
-350 -435 0
-381 -491 0
-382 -492 0
-383 -493 0
-384 -494 0
-385 -495 0
-66 -236 0
-67 -237 0
-68 -238 0
-69 -239 0
-70 -240 0
-211 -326 0
-212 -327 0
-213 -328 0
-214 -329 0
-215 -330 0
-216 -376 0
-217 -377 0
-218 -378 0
-219 -379 0
-220 -380 0
-151 -236 0
-152 -237 0
-153 -238 0
-154 -239 0
-155 -240 0
-316 -391 0
-317 -392 0
-318 -393 0
-319 -394 0
-320 -395 0
-46 -206 0
-47 -207 0
-48 -208 0
-49 -209 0
-50 -210 0
-416 -471 0
-417 -472 0
-418 -473 0
-419 -474 0
-420 -475 0
-151 -361 0
-152 -362 0
-153 -363 0
-154 -364 0
-155 -365 0
-131 -411 0
-132 -412 0
-133 -413 0
-134 -414 0
-135 -415 0
-261 -426 0
-262 -427 0
-263 -428 0
-264 -429 0
-265 -430 0
-36 -456 0
-37 -457 0
-38 -458 0
-39 -459 0
-40 -460 0
-241 -276 0
-242 -277 0
-243 -278 0
-244 -279 0
-245 -280 0
-431 -471 0
-432 -472 0
-433 -473 0
-434 -474 0
-435 -475 0
-106 -406 0
-107 -407 0
-108 -408 0
-109 -409 0
-110 -410 0
-226 -366 0
-227 -367 0
-228 -368 0
-229 -369 0
-230 -370 0
-71 -436 0
-72 -437 0
-73 -438 0
-74 -439 0
-75 -440 0
-181 -291 0
-182 -292 0
-183 -293 0
-184 -294 0
-185 -295 0
-136 -416 0
-137 -417 0
-138 -418 0
-139 -419 0
-140 -420 0
-161 -186 0
-162 -187 0
-163 -188 0
-164 -189 0
-165 -190 0
-261 -471 0
-262 -472 0
-263 -473 0
-264 -474 0
-265 -475 0
-61 -91 0
-62 -92 0
-63 -93 0
-64 -94 0
-65 -95 0
-36 -251 0
-37 -252 0
-38 -253 0
-39 -254 0
-40 -255 0
-226 -476 0
-227 -477 0
-228 -478 0
-229 -479 0
-230 -480 0
-246 -486 0
-247 -487 0
-248 -488 0
-249 -489 0
-250 -490 0
-291 -331 0
-292 -332 0
-293 -333 0
-294 -334 0
-295 -335 0
-391 -481 0
-392 -482 0
-393 -483 0
-394 -484 0
-395 -485 0
-136 -401 0
-137 -402 0
-138 -403 0
-139 -404 0
-140 -405 0
-151 -371 0
-152 -372 0
-153 -373 0
-154 -374 0
-155 -375 0
-121 -151 0
-122 -152 0
-123 -153 0
-124 -154 0
-125 -155 0
-86 -291 0
-87 -292 0
-88 -293 0
-89 -294 0
-90 -295 0
-181 -396 0
-182 -397 0
-183 -398 0
-184 -399 0
-185 -400 0
-276 -401 0
-277 -402 0
-278 -403 0
-279 -404 0
-280 -405 0
-261 -411 0
-262 -412 0
-263 -413 0
-264 -414 0
-265 -415 0
-396 -486 0
-397 -487 0
-398 -488 0
-399 -489 0
-400 -490 0
-411 -496 0
-412 -497 0
-413 -498 0
-414 -499 0
-415 -500 0
-26 -251 0
-27 -252 0
-28 -253 0
-29 -254 0
-30 -255 0
-26 -436 0
-27 -437 0
-28 -438 0
-29 -439 0
-30 -440 0
-66 -111 0
-67 -112 0
-68 -113 0
-69 -114 0
-70 -115 0
-161 -236 0
-162 -237 0
-163 -238 0
-164 -239 0
-165 -240 0
-211 -246 0
-212 -247 0
-213 -248 0
-214 -249 0
-215 -250 0
-231 -366 0
-232 -367 0
-233 -368 0
-234 -369 0
-235 -370 0
-256 -306 0
-257 -307 0
-258 -308 0
-259 -309 0
-260 -310 0
-31 -476 0
-32 -477 0
-33 -478 0
-34 -479 0
-35 -480 0
-141 -456 0
-142 -457 0
-143 -458 0
-144 -459 0
-145 -460 0
-21 -231 0
-22 -232 0
-23 -233 0
-24 -234 0
-25 -235 0
-6 -426 0
-7 -427 0
-8 -428 0
-9 -429 0
-10 -430 0
-46 -81 0
-47 -82 0
-48 -83 0
-49 -84 0
-50 -85 0
-161 -346 0
-162 -347 0
-163 -348 0
-164 -349 0
-165 -350 0
-241 -266 0
-242 -267 0
-243 -268 0
-244 -269 0
-245 -270 0
-181 -206 0
-182 -207 0
-183 -208 0
-184 -209 0
-185 -210 0
-241 -321 0
-242 -322 0
-243 -323 0
-244 -324 0
-245 -325 0
-156 -236 0
-157 -237 0
-158 -238 0
-159 -239 0
-160 -240 0
-1 -441 0
-2 -442 0
-3 -443 0
-4 -444 0
-5 -445 0
-111 -466 0
-112 -467 0
-113 -468 0
-114 -469 0
-115 -470 0
-221 -311 0
-222 -312 0
-223 -313 0
-224 -314 0
-225 -315 0
-306 -486 0
-307 -487 0
-308 -488 0
-309 -489 0
-310 -490 0
-81 -391 0
-82 -392 0
-83 -393 0
-84 -394 0
-85 -395 0
-101 -246 0
-102 -247 0
-103 -248 0
-104 -249 0
-105 -250 0
-21 -131 0
-22 -132 0
-23 -133 0
-24 -134 0
-25 -135 0
-61 -201 0
-62 -202 0
-63 -203 0
-64 -204 0
-65 -205 0
-311 -421 0
-312 -422 0
-313 -423 0
-314 -424 0
-315 -425 0
-86 -171 0
-87 -172 0
-88 -173 0
-89 -174 0
-90 -175 0
-176 -426 0
-177 -427 0
-178 -428 0
-179 -429 0
-180 -430 0
-386 -451 0
-387 -452 0
-388 -453 0
-389 -454 0
-390 -455 0
-291 -316 0
-292 -317 0
-293 -318 0
-294 -319 0
-295 -320 0
-316 -351 0
-317 -352 0
-318 -353 0
-319 -354 0
-320 -355 0
-1 -416 0
-2 -417 0
-3 -418 0
-4 -419 0
-5 -420 0
-181 -271 0
-182 -272 0
-183 -273 0
-184 -274 0
-185 -275 0
-211 -286 0
-212 -287 0
-213 -288 0
-214 -289 0
-215 -290 0
-76 -221 0
-77 -222 0
-78 -223 0
-79 -224 0
-80 -225 0
-126 -421 0
-127 -422 0
-128 -423 0
-129 -424 0
-130 -425 0
-356 -486 0
-357 -487 0
-358 -488 0
-359 -489 0
-360 -490 0
-196 -406 0
-197 -407 0
-198 -408 0
-199 -409 0
-200 -410 0
-101 -286 0
-102 -287 0
-103 -288 0
-104 -289 0
-105 -290 0
-86 -371 0
-87 -372 0
-88 -373 0
-89 -374 0
-90 -375 0
-171 -196 0
-172 -197 0
-173 -198 0
-174 -199 0
-175 -200 0
-151 -276 0
-152 -277 0
-153 -278 0
-154 -279 0
-155 -280 0
-161 -411 0
-162 -412 0
-163 -413 0
-164 -414 0
-165 -415 0
-176 -441 0
-177 -442 0
-178 -443 0
-179 -444 0
-180 -445 0
-141 -286 0
-142 -287 0
-143 -288 0
-144 -289 0
-145 -290 0
-181 -241 0
-182 -242 0
-183 -243 0
-184 -244 0
-185 -245 0
-146 -316 0
-147 -317 0
-148 -318 0
-149 -319 0
-150 -320 0
-141 -191 0
-142 -192 0
-143 -193 0
-144 -194 0
-145 -195 0
-316 -496 0
-317 -497 0
-318 -498 0
-319 -499 0
-320 -500 0
-86 -241 0
-87 -242 0
-88 -243 0
-89 -244 0
-90 -245 0
-201 -251 0
-202 -252 0
-203 -253 0
-204 -254 0
-205 -255 0
-106 -471 0
-107 -472 0
-108 -473 0
-109 -474 0
-110 -475 0
-26 -321 0
-27 -322 0
-28 -323 0
-29 -324 0
-30 -325 0
-206 -481 0
-207 -482 0
-208 -483 0
-209 -484 0
-210 -485 0
-311 -386 0
-312 -387 0
-313 -388 0
-314 -389 0
-315 -390 0
-316 -411 0
-317 -412 0
-318 -413 0
-319 -414 0
-320 -415 0
-181 -311 0
-182 -312 0
-183 -313 0
-184 -314 0
-185 -315 0
-156 -246 0
-157 -247 0
-158 -248 0
-159 -249 0
-160 -250 0
-11 -321 0
-12 -322 0
-13 -323 0
-14 -324 0
-15 -325 0
-136 -411 0
-137 -412 0
-138 -413 0
-139 -414 0
-140 -415 0
-181 -346 0
-182 -347 0
-183 -348 0
-184 -349 0
-185 -350 0
-231 -391 0
-232 -392 0
-233 -393 0
-234 -394 0
-235 -395 0
-171 -201 0
-172 -202 0
-173 -203 0
-174 -204 0
-175 -205 0
-206 -301 0
-207 -302 0
-208 -303 0
-209 -304 0
-210 -305 0
-421 -446 0
-422 -447 0
-423 -448 0
-424 -449 0
-425 -450 0
-56 -96 0
-57 -97 0
-58 -98 0
-59 -99 0
-60 -100 0
-366 -491 0
-367 -492 0
-368 -493 0
-369 -494 0
-370 -495 0
-341 -481 0
-342 -482 0
-343 -483 0
-344 -484 0
-345 -485 0
-71 -366 0
-72 -367 0
-73 -368 0
-74 -369 0
-75 -370 0
-351 -456 0
-352 -457 0
-353 -458 0
-354 -459 0
-355 -460 0
-16 -481 0
-17 -482 0
-18 -483 0
-19 -484 0
-20 -485 0
-346 -461 0
-347 -462 0
-348 -463 0
-349 -464 0
-350 -465 0
-196 -386 0
-197 -387 0
-198 -388 0
-199 -389 0
-200 -390 0
-281 -321 0
-282 -322 0
-283 -323 0
-284 -324 0
-285 -325 0
-141 -266 0
-142 -267 0
-143 -268 0
-144 -269 0
-145 -270 0
-166 -336 0
-167 -337 0
-168 -338 0
-169 -339 0
-170 -340 0
-1 -446 0
-2 -447 0
-3 -448 0
-4 -449 0
-5 -450 0
-271 -346 0
-272 -347 0
-273 -348 0
-274 -349 0
-275 -350 0
-331 -436 0
-332 -437 0
-333 -438 0
-334 -439 0
-335 -440 0
-71 -486 0
-72 -487 0
-73 -488 0
-74 -489 0
-75 -490 0
-211 -301 0
-212 -302 0
-213 -303 0
-214 -304 0
-215 -305 0
-246 -336 0
-247 -337 0
-248 -338 0
-249 -339 0
-250 -340 0
-116 -446 0
-117 -447 0
-118 -448 0
-119 -449 0
-120 -450 0
-91 -186 0
-92 -187 0
-93 -188 0
-94 -189 0
-95 -190 0
-116 -331 0
-117 -332 0
-118 -333 0
-119 -334 0
-120 -335 0
-236 -421 0
-237 -422 0
-238 -423 0
-239 -424 0
-240 -425 0
-271 -331 0
-272 -332 0
-273 -333 0
-274 -334 0
-275 -335 0
-201 -471 0
-202 -472 0
-203 -473 0
-204 -474 0
-205 -475 0
-151 -221 0
-152 -222 0
-153 -223 0
-154 -224 0
-155 -225 0
-276 -431 0
-277 -432 0
-278 -433 0
-279 -434 0
-280 -435 0
-271 -421 0
-272 -422 0
-273 -423 0
-274 -424 0
-275 -425 0
-91 -416 0
-92 -417 0
-93 -418 0
-94 -419 0
-95 -420 0
-61 -471 0
-62 -472 0
-63 -473 0
-64 -474 0
-65 -475 0
-61 -216 0
-62 -217 0
-63 -218 0
-64 -219 0
-65 -220 0
-191 -366 0
-192 -367 0
-193 -368 0
-194 -369 0
-195 -370 0
-201 -236 0
-202 -237 0
-203 -238 0
-204 -239 0
-205 -240 0
-166 -426 0
-167 -427 0
-168 -428 0
-169 -429 0
-170 -430 0
-96 -266 0
-97 -267 0
-98 -268 0
-99 -269 0
-100 -270 0
-251 -446 0
-252 -447 0
-253 -448 0
-254 -449 0
-255 -450 0
-221 -256 0
-222 -257 0
-223 -258 0
-224 -259 0
-225 -260 0
-186 -266 0
-187 -267 0
-188 -268 0
-189 -269 0
-190 -270 0
-76 -166 0
-77 -167 0
-78 -168 0
-79 -169 0
-80 -170 0
-26 -441 0
-27 -442 0
-28 -443 0
-29 -444 0
-30 -445 0
-146 -456 0
-147 -457 0
-148 -458 0
-149 -459 0
-150 -460 0
-236 -381 0
-237 -382 0
-238 -383 0
-239 -384 0
-240 -385 0
-86 -226 0
-87 -227 0
-88 -228 0
-89 -229 0
-90 -230 0
-276 -346 0
-277 -347 0
-278 -348 0
-279 -349 0
-280 -350 0
-206 -271 0
-207 -272 0
-208 -273 0
-209 -274 0
-210 -275 0
-251 -376 0
-252 -377 0
-253 -378 0
-254 -379 0
-255 -380 0
-181 -261 0
-182 -262 0
-183 -263 0
-184 -264 0
-185 -265 0
-141 -346 0
-142 -347 0
-143 -348 0
-144 -349 0
-145 -350 0
-36 -406 0
-37 -407 0
-38 -408 0
-39 -409 0
-40 -410 0
-201 -256 0
-202 -257 0
-203 -258 0
-204 -259 0
-205 -260 0
-441 -471 0
-442 -472 0
-443 -473 0
-444 -474 0
-445 -475 0
-276 -421 0
-277 -422 0
-278 -423 0
-279 -424 0
-280 -425 0
-171 -321 0
-172 -322 0
-173 -323 0
-174 -324 0
-175 -325 0
-61 -276 0
-62 -277 0
-63 -278 0
-64 -279 0
-65 -280 0
-101 -191 0
-102 -192 0
-103 -193 0
-104 -194 0
-105 -195 0
-16 -181 0
-17 -182 0
-18 -183 0
-19 -184 0
-20 -185 0
-51 -276 0
-52 -277 0
-53 -278 0
-54 -279 0
-55 -280 0
-131 -341 0
-132 -342 0
-133 -343 0
-134 -344 0
-135 -345 0
-371 -451 0
-372 -452 0
-373 -453 0
-374 -454 0
-375 -455 0
-71 -176 0
-72 -177 0
-73 -178 0
-74 -179 0
-75 -180 0
-121 -356 0
-122 -357 0
-123 -358 0
-124 -359 0
-125 -360 0
